p edge 500 153
e 117 190 1.000000
e 117 493 1.000000
e 190 493 1.000000
e 65 193 1.000000
e 65 99 1.000000
e 99 193 1.000000
e 23 361 1.000000
e 23 44 1.000000
e 44 361 1.000000
e 71 127 1.000000
e 71 416 1.000000
e 127 416 1.000000
e 108 260 1.000000
e 108 206 1.000000
e 206 260 1.000000
e 16 329 1.000000
e 16 236 1.000000
e 236 329 1.000000
e 233 250 1.000000
e 200 250 1.000000
e 200 233 1.000000
e 254 294 1.000000
e 99 254 1.000000
e 99 294 1.000000
e 426 460 1.000000
e 207 460 1.000000
e 207 426 1.000000
e 46 249 1.000000
e 46 120 1.000000
e 120 249 1.000000
e 11 389 1.000000
e 11 359 1.000000
e 359 389 1.000000
e 137 267 1.000000
e 137 209 1.000000
e 209 267 1.000000
e 243 462 1.000000
e 243 467 1.000000
e 462 467 1.000000
e 195 372 1.000000
e 59 195 1.000000
e 59 372 1.000000
e 133 340 1.000000
e 50 340 1.000000
e 50 133 1.000000
e 33 417 1.000000
e 33 198 1.000000
e 198 417 1.000000
e 318 425 1.000000
e 194 318 1.000000
e 194 425 1.000000
e 56 339 1.000000
e 30 56 1.000000
e 30 339 1.000000
e 174 354 1.000000
e 121 174 1.000000
e 121 354 1.000000
e 45 255 1.000000
e 45 463 1.000000
e 255 463 1.000000
e 333 462 1.000000
e 265 333 1.000000
e 265 462 1.000000
e 107 298 1.000000
e 107 414 1.000000
e 298 414 1.000000
e 73 311 1.000000
e 33 73 1.000000
e 33 311 1.000000
e 277 485 1.000000
e 20 277 1.000000
e 20 485 1.000000
e 251 360 1.000000
e 100 251 1.000000
e 100 360 1.000000
e 76 485 1.000000
e 76 441 1.000000
e 441 485 1.000000
e 297 374 1.000000
e 234 297 1.000000
e 234 374 1.000000
e 300 452 1.000000
e 228 300 1.000000
e 228 452 1.000000
e 147 286 1.000000
e 147 183 1.000000
e 183 286 1.000000
e 438 450 1.000000
e 219 438 1.000000
e 219 450 1.000000
e 70 82 1.000000
e 70 392 1.000000
e 82 392 1.000000
e 50 308 1.000000
e 50 273 1.000000
e 273 308 1.000000
e 354 360 1.000000
e 161 354 1.000000
e 161 360 1.000000
e 183 487 1.000000
e 183 330 1.000000
e 330 487 1.000000
e 254 432 1.000000
e 254 258 1.000000
e 258 432 1.000000
e 102 320 1.000000
e 102 159 1.000000
e 159 320 1.000000
e 77 183 1.000000
e 77 271 1.000000
e 183 271 1.000000
e 146 262 1.000000
e 146 337 1.000000
e 262 337 1.000000
e 37 414 1.000000
e 37 463 1.000000
e 414 463 1.000000
e 439 468 1.000000
e 260 439 1.000000
e 260 468 1.000000
e 280 360 1.000000
e 113 360 1.000000
e 113 280 1.000000
e 177 465 1.000000
e 125 177 1.000000
e 125 465 1.000000
e 7 152 1.000000
e 7 176 1.000000
e 152 176 1.000000
e 113 137 1.000000
e 18 113 1.000000
e 18 137 1.000000
e 131 217 1.000000
e 131 193 1.000000
e 193 217 1.000000
e 153 428 1.000000
e 153 362 1.000000
e 362 428 1.000000
e 214 457 1.000000
e 90 457 1.000000
e 90 214 1.000000
e 203 337 1.000000
e 60 337 1.000000
e 60 203 1.000000
e 86 478 1.000000
e 86 340 1.000000
e 340 478 1.000000
e 437 500 1.000000
e 14 437 1.000000
e 14 500 1.000000
e 104 499 1.000000
e 104 393 1.000000
e 393 499 1.000000
